p cnf 92 315
1 -2 -3 0
-1 2 -3 0
1 2 3 0
-1 -2 3 0
-2 4 -5 0
2 -4 -5 0
-2 -4 5 0
2 4 5 0
-6 -1 -7 0
6 1 -7 0
-6 1 7 0
6 -1 7 0
8 5 0
8 7 0
-5 -7 -8 0
-10 9 0
-10 -2 0
-9 2 10 0
7 -10 -11 0
-7 10 -11 0
7 10 11 0
-7 -10 11 0
12 7 0
12 -4 0
-7 4 -12 0
13 -12 -14 0
-13 12 -14 0
13 12 14 0
-13 -12 14 0
-13 14 -15 0
13 -14 -15 0
-13 -14 15 0
13 14 15 0
-16 12 0
-16 15 0
-12 -15 16 0
17 13 -18 0
-17 -13 -18 0
17 -13 18 0
-17 13 18 0
19 -16 0
19 18 0
16 -18 -19 0
-19 -20 -21 0
19 20 -21 0
-19 20 21 0
19 -20 21 0
11 -21 -22 0
-11 21 -22 0
11 21 22 0
-11 -21 22 0
-23 -8 0
-23 22 0
8 -22 23 0
-24 3 0
-24 23 0
-3 -23 24 0
26 25 0
26 13 0
-25 -13 -26 0
-6 27 -28 0
6 -27 -28 0
-6 -27 28 0
6 27 28 0
21 -28 -29 0
-21 28 -29 0
21 28 29 0
-21 -28 29 0
-29 27 -30 0
29 -27 -30 0
-29 -27 30 0
29 27 30 0
-31 -26 0
-31 30 0
26 -30 31 0
-15 1 -32 0
15 -1 -32 0
-15 -1 32 0
15 1 32 0
-7 -13 -33 0
7 13 -33 0
-7 13 33 0
7 -13 33 0
-34 -32 0
-34 -33 0
32 33 34 0
-35 10 0
-35 -9 0
-10 9 35 0
12 -5 -36 0
-12 5 -36 0
12 5 36 0
-12 -5 36 0
37 35 0
37 36 0
-35 -36 -37 0
-38 37 0
-38 -25 0
-37 25 38 0
34 38 -39 0
-34 -38 -39 0
34 -38 39 0
-34 38 39 0
40 31 0
40 -39 0
-31 39 -40 0
-25 6 -41 0
25 -6 -41 0
-25 -6 41 0
25 6 41 0
42 -19 0
42 1 0
19 -1 -42 0
43 41 0
43 42 0
-41 -42 -43 0
43 1 -44 0
-43 -1 -44 0
43 -1 44 0
-43 1 44 0
46 15 0
46 36 0
-15 -36 -46 0
-47 32 0
-47 46 0
-32 -46 47 0
-48 -45 0
-48 -47 0
45 47 48 0
49 -44 0
49 -48 0
44 48 -49 0
-51 50 0
-51 -20 0
-50 20 51 0
-52 -37 0
-52 51 0
37 -51 52 0
-53 -4 0
-53 -12 0
4 12 53 0
-54 -28 0
-54 53 0
28 -53 54 0
52 -54 -55 0
-52 54 -55 0
52 54 55 0
-52 -54 55 0
56 28 0
56 5 0
-28 -5 -56 0
57 55 0
57 56 0
-55 -56 -57 0
-58 -49 0
-58 57 0
49 -57 58 0
-6 -32 -59 0
6 32 -59 0
-6 32 59 0
6 -32 59 0
-60 27 0
-60 -5 0
-27 5 60 0
61 -60 0
61 -42 0
60 42 -61 0
63 -61 0
63 62 0
61 -62 -63 0
64 59 0
64 -63 0
-59 63 -64 0
-65 -58 0
-65 -64 0
58 64 65 0
66 -40 0
66 65 0
40 -65 -66 0
24 66 -67 0
-24 -66 -67 0
24 -66 67 0
-24 66 67 0
-68 -8 0
-68 -19 0
8 19 68 0
69 15 0
69 5 0
-15 -5 -69 0
71 69 0
71 70 0
-69 -70 -71 0
-14 -12 -72 0
14 12 -72 0
-14 12 72 0
14 -12 72 0
72 -16 -73 0
-72 16 -73 0
72 16 73 0
-72 -16 73 0
-71 -73 -74 0
71 73 -74 0
-71 73 74 0
71 -73 74 0
-75 68 0
-75 -74 0
-68 74 75 0
2 7 -76 0
-2 -7 -76 0
2 -7 76 0
-2 7 76 0
77 4 0
77 -22 0
-4 22 -77 0
-78 76 0
-78 -77 0
-76 77 78 0
-79 75 0
-79 78 0
-75 -78 79 0
-80 -67 0
-80 -79 0
67 79 80 0
-81 53 0
-81 72 0
-53 -72 81 0
-9 -11 -82 0
9 11 -82 0
-9 11 82 0
9 -11 82 0
83 -82 0
83 45 0
82 -45 -83 0
-84 81 0
-84 -83 0
-81 83 84 0
85 -80 0
85 84 0
80 -84 -85 0
33 2 -86 0
-33 -2 -86 0
33 -2 86 0
-33 2 86 0
-87 20 0
-87 18 0
-20 -18 87 0
-88 -1 0
-88 10 0
1 -10 88 0
-89 -18 0
-89 -88 0
18 88 89 0
90 -87 0
90 -89 0
87 89 -90 0
91 86 0
91 90 0
-86 -90 -91 0
-85 91 -92 0
85 -91 -92 0
-85 -91 92 0
85 91 92 0
-39 48 54 0
80 -90 0
-61 92 -12 84 -31 0
57 -22 0
-72 -50 -64 -14 -36 0
10 81 -69 30 51 -79 0
1 30 -16 -42 -82 0
-4 -73 -74 0
44 87 0
-65 -15 -45 87 18 31 0
-1 -75 0
23 -36 -10 59 0
-73 -80 83 70 31 0
-69 -34 86 31 0
-31 9 -16 -66 0
81 -83 -3 -14 -20 26 0
63 -10 -21 -37 72 -88 0
-62 -29 27 0
-18 -53 -67 54 19 16 0
-5 50 -31 28 0
-47 -38 84 -30 0
53 -50 -43 0
-88 -66 9 82 49 53 0
-15 61 -59 0
-79 2 58 -82 24 33 0
-47 -73 28 -12 0
-72 -19 15 66 -27 -6 0
-11 -6 8 -7 -92 0
-78 41 -12 7 -50 -85 0
11 36 90 28 48 0
-55 -52 92 0
-13 -30 -35 9 0
77 -4 78 63 89 0
90 -48 0
90 -20 -25 24 -32 0
-23 69 91 -34 0
79 2 40 10 -45 0
31 5 -89 1 0
-78 46 0
26 75 0
-34 -82 55 -41 0
-60 87 1 0
-72 -48 -55 12 0
-10 -60 0
1 19 -89 78 11 26 0
-25 -3 0
-17 32 15 -14 0
-65 -89 0
50 80 0
-64 -26 -70 -66 0
-40 -14 0
-4 84 41 0
92 0
